nNurses = 183;
nHours = 38;
minHours = 10;
maxHours = 10;
maxConsec = 10;
maxPresence = 23;
demand = [9, 6, 6, 11, 6, 10, 12, 9, 6, 6, 9, 14, 14, 16, 14, 19, 17, 15, 10, 7, 10, 6, 7, 12, 17, 13, 10, 14, 9, 14, 18, 18, 18, 13, 11, 14, 15, 14];
